c ren 12 -> 1
c ren 16 -> 2
c ren 20 -> 3
c ren 21 -> 4
c ren 22 -> 5
c ren 23 -> 6
c ren 25 -> 7
c ren 26 -> 8
c ren 29 -> 9
c ren 30 -> 10
c ren 32 -> 11
c ren 34 -> 12
c ren 35 -> 13
c ren 39 -> 14
c ren 40 -> 15
c ren 43 -> 16
c ren 44 -> 17
c ren 46 -> 18
c ren 47 -> 19
c ren 49 -> 20
c ren 50 -> 21
c ren 53 -> 22
c ren 54 -> 23
c ren 56 -> 24
c ren 57 -> 25
c ren 58 -> 26
c ren 59 -> 27
c ren 62 -> 28
c ren 64 -> 29
c ren 65 -> 30
c ren 69 -> 31
c ren 70 -> 32
c ren 73 -> 33
c ren 74 -> 34
c ren 76 -> 35
c ren 77 -> 36
c ren 80 -> 37
c ren 81 -> 38
c ren 83 -> 39
c ren 85 -> 40
c ren 86 -> 41
c ren 89 -> 42
c ren 90 -> 43
c ren 92 -> 44
c ren 93 -> 45
c ren 94 -> 46
c ren 95 -> 47
c ren 99 -> 48
c ren 100 -> 49
c ren 102 -> 50
c ren 103 -> 51
c ren 106 -> 52
c ren 107 -> 53
c ren 109 -> 54
c ren 110 -> 55
c ren 112 -> 56
c ren 113 -> 57
c ren 116 -> 58
c ren 117 -> 59
c ren 119 -> 60
c ren 121 -> 61
c ren 122 -> 62
c ren 126 -> 63
c ren 127 -> 64
c ren 131 -> 65
c ren 132 -> 66
c ren 135 -> 67
c ren 136 -> 68
c ren 138 -> 69
c ren 139 -> 70
c ren 140 -> 71
c ren 141 -> 72
c ren 143 -> 73
c ren 145 -> 74
c ren 146 -> 75
c ren 149 -> 76
c ren 150 -> 77
c ren 152 -> 78
c ren 153 -> 79
c ren 154 -> 80
c ren 155 -> 81
c ren 159 -> 82
c ren 161 -> 83
c ren 164 -> 84
c ren 165 -> 85
c ren 168 -> 86
c ren 169 -> 87
c ren 171 -> 88
c ren 172 -> 89
c ren 174 -> 90
c ren 175 -> 91
c ren 178 -> 92
c ren 179 -> 93
c ren 181 -> 94
c ren 182 -> 95
c ren 183 -> 96
c ren 184 -> 97
c ren 187 -> 98
c ren 189 -> 99
c ren 190 -> 100
c ren 194 -> 101
c ren 195 -> 102
c ren 198 -> 103
c ren 199 -> 104
c ren 201 -> 105
c ren 202 -> 106
c ren 205 -> 107
c ren 206 -> 108
c ren 208 -> 109
c ren 210 -> 110
c ren 211 -> 111
c ren 214 -> 112
c ren 215 -> 113
c ren 217 -> 114
c ren 218 -> 115
c ren 219 -> 116
c ren 220 -> 117
c ren 224 -> 118
c ren 225 -> 119
c ren 227 -> 120
c ren 228 -> 121
c ren 231 -> 122
c ren 232 -> 123
c ren 234 -> 124
c ren 235 -> 125
c ren 237 -> 126
c ren 238 -> 127
c ren 241 -> 128
c ren 242 -> 129
c ren 244 -> 130
c ren 246 -> 131
c ren 247 -> 132
c ren 251 -> 133
c ren 252 -> 134
c ren 256 -> 135
c ren 257 -> 136
c ren 260 -> 137
c ren 261 -> 138
c ren 263 -> 139
c ren 264 -> 140
p cnf 140 336
e 1 2 3 4 5 6 7 8 9 10 11 12 13 14 15 16 17 18 19 20 21 22 23 24 25 26 27 28 29 30 31 32 33 34 35 36 37 38 39 40 41 42 43 44 45 46 47 48 49 50 51 52 53 54 55 56 57 58 59 60 61 62 63 64 65 66 67 68 69 70 71 72 73 74 75 76 77 78 79 80 81 82 83 84 85 86 87 88 89 90 91 92 93 94 95 96 97 98 99 100 101 102 103 104 105 106 107 108 109 110 111 112 113 114 115 116 117 118 119 120 121 122 123 124 125 126 127 128 129 130 131 132 133 134 135 136 137 138 139 140 0
49 -116 0
-42 -88 -118 -122 -130 0
-46 70 0
88 128 0
57 -95 0
5 27 31 79 -103 0
-104 128 0
103 107 0
83 126 0
-8 51 -58 -61 76 0
-76 89 0
-34 93 0
17 134 0
-35 -60 0
6 -18 45 116 129 0
-19 -63 0
-63 -116 0
-12 -66 0
-37 -60 0
-20 -138 0
-4 -32 0
130 -132 0
-91 122 0
-16 113 0
12 13 50 -72 108 0
-35 -96 0
-48 -72 -92 95 138 0
127 130 0
-14 56 -70 -81 -122 0
-3 -76 0
-66 -84 0
-117 137 0
-32 83 0
-26 53 0
54 106 0
74 -135 0
-67 77 -89 -100 -109 0
14 124 0
-62 122 0
-48 -49 -113 115 135 0
-50 52 0
-108 -140 0
102 -117 0
-62 -91 0
-24 -55 0
-90 -117 0
102 137 0
-33 119 0
16 63 98 -102 -105 0
-28 65 79 -93 -99 0
-49 64 66 -127 -139 0
-5 -63 0
-138 139 0
5 26 60 82 111 0
28 105 0
-11 -129 0
-9 94 0
9 82 85 -133 138 0
-76 124 0
-41 -66 0
-1 81 0
15 -39 -69 -73 -74 0
-71 -108 0
-9 -111 0
-12 -84 0
-7 -64 0
36 -43 0
-8 20 -68 90 110 0
19 21 91 -119 -123 0
-21 54 0
-62 105 0
-101 -110 0
57 123 0
123 -131 0
-17 35 -38 -52 -97 0
12 -53 77 -107 -124 0
38 106 0
-98 103 0
-5 49 0
-44 -115 0
-20 69 0
-4 126 0
10 -77 0
-37 -96 0
40 -66 0
-13 70 0
-71 -140 0
-65 -85 0
4 -57 104 -130 -134 0
11 30 76 -80 -120 0
-65 -115 0
-24 -110 0
-4 83 0
23 58 0
15 -42 45 60 -120 0
109 123 0
-50 67 0
-54 -83 -113 115 132 0
68 94 0
-71 -86 0
-31 100 0
22 97 0
-11 61 0
-15 72 0
8 -85 0
136 137 0
-20 -29 0
-19 -116 0
-31 133 0
-59 70 0
109 -131 0
-5 -116 0
-87 -140 0
-51 72 0
-91 105 0
-111 120 0
48 128 0
-99 116 -119 -136 140 0
14 -76 0
68 -111 0
-77 -78 0
-16 39 0
23 92 0
61 -79 0
-95 123 0
-44 -65 0
-31 80 0
-45 128 0
-117 136 0
-33 36 0
-44 -85 0
52 67 0
14 89 0
40 -84 0
-30 54 0
61 -129 0
-12 -41 0
-25 -34 0
40 -41 0
-25 93 0
-13 118 0
47 -77 0
28 -91 0
-86 -108 0
97 -98 0
-60 -96 0
-114 -135 0
-2 39 0
-27 130 0
10 99 0
-85 -115 0
81 -114 0
69 139 0
2 -36 -73 75 -92 0
18 113 0
6 -18 -69 90 -124 0
57 -131 0
-26 72 0
22 107 0
28 -62 0
33 41 98 -128 -139 0
-43 119 0
-5 -19 0
112 130 0
-87 -108 0
-95 109 0
-11 -121 0
100 133 0
58 134 0
-96 -125 0
-26 -51 0
48 -104 0
47 -78 0
-1 -114 0
7 16 37 62 121 0
42 73 0
49 -63 0
39 113 0
18 39 0
23 134 0
-7 67 0
97 107 0
42 93 0
105 122 0
-29 -138 0
92 134 0
-17 71 96 114 131 0
80 133 0
-32 -82 0
-46 118 0
-98 107 0
-86 -87 0
22 -98 0
-11 -79 0
-59 118 0
-33 -43 0
-32 126 0
-31 -75 0
74 -114 0
94 -111 0
-75 133 0
-15 -26 0
-1 -135 0
69 -138 0
-82 126 0
-2 113 0
-2 -16 0
48 88 0
-25 73 0
-90 137 0
27 43 -94 -103 114 0
-19 49 0
-14 50 71 85 -128 0
-2 18 0
-12 40 0
112 127 0
36 -56 0
-4 -82 0
-41 -84 0
102 136 0
-6 -101 0
-55 -101 0
-35 -37 0
-75 100 0
-121 -129 0
-21 -30 0
26 -38 55 -74 -80 0
-34 73 0
-60 -125 0
-29 139 0
21 -39 59 78 -107 0
80 100 0
47 99 0
17 58 0
-15 -51 0
-6 -55 0
-3 124 0
-45 -104 0
1 55 -58 -67 84 0
-45 48 0
-37 -125 0
-64 67 0
81 -135 0
-71 -87 0
-75 80 0
-45 88 0
88 -104 0
-51 53 0
-27 127 0
35 63 110 -118 -126 0
36 119 0
112 -132 0
10 47 0
24 43 -52 -94 132 0
73 93 0
-47 -106 108 -112 117 0
-27 -132 0
-21 106 0
-9 120 0
34 44 86 91 -97 0
-6 -110 0
-23 -28 -47 66 -68 0
-7 52 0
11 30 87 -88 101 0
127 -132 0
-20 139 0
8 -115 0
51 62 75 101 140 0
8 -65 0
-3 89 0
52 -64 0
1 -22 64 -83 117 0
-78 99 0
-10 25 29 -106 -127 0
32 -81 87 104 -133 0
-25 42 0
33 37 -40 -61 86 0
4 -23 34 56 -89 0
2 31 78 96 -134 0
94 120 0
38 54 0
-50 -64 0
7 9 25 -57 -136 0
97 103 0
-13 -46 0
-77 99 0
65 84 -102 -112 125 0
-6 -24 0
-33 -56 0
-35 -125 0
3 32 -40 -54 -93 0
-16 18 0
-13 -59 0
-29 69 0
8 -44 0
-22 29 -36 59 121 0
-82 83 0
-27 112 0
-24 -101 0
17 92 0
-55 -110 0
-90 102 0
70 118 0
-15 53 0
-30 106 0
89 124 0
-46 -59 0
-95 -131 0
28 122 0
10 -78 0
-86 -140 0
68 120 0
-3 14 0
-56 119 0
58 92 0
53 72 0
74 81 0
61 -121 0
19 20 -53 95 -105 0
-79 -129 0
-30 38 0
-34 42 0
-43 -56 0
-90 136 0
-21 38 0
-7 -50 0
17 23 0
57 109 0
3 13 125 135 -137 0
-10 24 -70 -126 131 0
-79 -121 0
22 103 0
-1 74 0
-9 68 0
41 44 46 -100 -109 0
46 111 -123 129 -137 0
